26
8
115
95
38
42
166
78
102
200
0 0 0
0 1 8
1 0 16
2 0 24
3 0 27
0 4 33
1 4 39
0 5 41
1 5 45
4 0 49
5 0 54
6 0 56
7 0 59
8 0 72
0 2 71
1 2 77
0 7 78
0 8 79
1 8 85
0 6 82
2 8 91
0 3 95
1 6 100
3 8 105
2 2 113
3 2 123
4 2 136
5 2 142
6 2 149
7 2 149
8 2 161
9 2 169
2 6 173
3 6 186
4 6 191
0 9 191
1 9 204
2 9 209
3 9 205
4 9 213
5 9 228
